20
30
1,2,15,16
2,1,3,12
3,2,4,8
4,3,5,17
5,4,6,15
6,7,5,11
7,6,8,18
8,7,9,3
9,8,9,14
10,9,11,19
11,10,12,6
12,11,13,2
13,12,14,20
14,13,15,9
15,1,14,5
16,1,17,20
17,4,16,18
18,7,17,19
19,10,18,20
20,13,16,19
